NAME : exp-kmeans
COMMENT : (malos nodos iniciales, grafo de nubes)
TYPE : CVRP
DIMENSION : 27
EDGE_WEIGHT_TYPE : EUC_2D 
CAPACITY : 100
NODE_COORD_SECTION 
 1 0 0
 2 50 52
 3 -79 79
 4 65 -80
 5 -87 -80
 6 -85 -75
 7 50 51
 8 -95 -80
 9 50 51
 10 -79 65
 11 59 59
 12 -70 60
 13 60 -81
 14 -75 63
 15 -90 -86
 16 -89 -77
 17 50 -79
 18 55 -80
 19 63 -84
 20 65 -87
 21 -97 -80
 22 55 49
 23 60 55
 24 -82 70
 25 -73 73
 26 51 51
 27 53 56
DEMAND_SECTION 
1 0 
2 15 
3 20 
4 8
5 20 
6 15 
7 12 
8 16 
9 6 
10 16 
11 8 
12 14 
13 21 
14 16 
15 3 
16 15 
17 18 
18 19 
19 1 
20 10
21 20 
22 12 
23 25 
24 8 
25 24 
26 10 
27 10 
DEPOT_SECTION 
 1  
 -1  
EOF 
